
  22   10
  10   10   10   10   10   10   10   10   10   10

   0   0   0   0   0   0   0   0   0   0   0   4 2 3 4 5 
   6   0  10   0   0   0   0   0   0   0   0   2 7 6 
   2   0   0   0  10   0   0   0   0   0   0   2 7 6 
   6  10   0   0   0   0   0   0   0   0   0   2 7 6 
   3   0   0   0   0  10   0   0   0   0   0   1 6 
   2   0   0   0   0   0   0   0   0   0  10   2 9 8 
  10   0   0   0   0   0   0   0   0  10   0   2 9 8 
   9  10   0   0   0   0   0   0   0   0   0   2 13 11 
   1   0   0   0   0   0   0   0  10   0   0   1 10 
   7   0   0   0   0  10   0   0   0   0   0   2 13 12 
   5   0   0   0   0   0  10   0   0   0   0   1 12 
   2   0  10   0   0   0   0   0   0   0   0   1 14 
   5   0   0  10   0   0   0   0   0   0   0   1 14 
   4   0   0   0   0   0  10   0   0   0   0   2 17 15 
   3  10   0   0   0   0   0   0   0   0   0   2 18 16 
   3  10   0   0   0   0   0   0   0   0   0   2 21 19 
   4   0   0  10   0   0   0   0   0   0   0   2 21 19 
   3   0   0   0   0   0   0   0   0  10   0   2 21 20 
   9   0   0   0  10   0   0   0   0   0   0   1 20 
   7   0  10   0   0   0   0   0   0   0   0   1 22
  10   0  10   0   0   0   0   0   0   0   0   1 22
   0   0   0   0   0   0   0   0   0   0   0   0 
